molecule {
 He
}

scf_e, scf_wfn = energy("B3LYP/cc-pVDZ", return_wfn = True)

HOMO = scf_wfn.epsilon_a_subset("AO", "ALL")[scf_wfn.nalpha()]
LUMO = scf_wfn.epsilon_a_subset("AO", "ALL")[scf_wfn.nalpha() + 1]

print("\nThe HOMO - LUMO gap is %16.8f hartree" % (LUMO - HOMO))
