memory 2 gb

molecule h2o {
0 1
O
H 1 1.0
H 1 1.0 2 90.0
}

E, wfn = energy('b3lyp/cc-pvdz', return_wfn=True)
property('b3lyp/cc-pvdz', properties=['dipole'])